proyfinal/src/viki/013/experimentInOfficeAgust.take6.output/ad403e3f-38cd-4613-849a-8135836e31d8.als.dat
{'cnf.clauses': '118081',
 'cnf.totvars': '69608',
 'conflict literals': '29',
 'conflicts': '10',
 'decisions': '2333',
 'memused.mb': '15.90',
 'outcome': 'UNSAT',
 'propagations': '20085',
 'restarts': '1',
 'solver.msecs': 36,
 'task.msecs': 161}
