proyfinal/src/viki/013/experimentInOfficeAgust.take6.output/ad403e3f-38cd-4613-849a-8135836e31d8.als.out
Reading from standard input... Use '--help' for help.
============================[ Problem Statistics ]=============================
|                                                                             |
|  Number of variables:         69608                                         |
|  Number of clauses:          118081                                         |
|  Parse time:                   0.03 s                                       |
|                                                                             |
============================[ Search Statistics ]==============================
| Conflicts |          ORIGINAL         |          LEARNT          | Progress |
|           |    Vars  Clauses Literals |    Limit  Clauses Lit/Cl |          |
===============================================================================
===============================================================================
restarts              : 1
conflicts             : 10             (274 /sec)
decisions             : 2333           (0.00 % random) (63865 /sec)
propagations          : 20085          (549822 /sec)
conflict literals     : 29             (0.00 % deleted)
Memory used           : 15.90 MB
CPU time              : 0.03653 s

UNSATISFIABLE
